50
150
95
88
88
86
85
84
84
82
81
79
72
71
69
69
69
68
68
65
61
61
61
61
60
58
57
57
53
44
43
36
29
29
27
23
23
22
21
17
14
14
14
13
12
11
11
6
5
3
3
2
